82 47 36 46 84 17 5 89 
50 76 79 78 29 24 68 80 12 28 
60 83 45 8 18 
39 23 67 55 25 54 
99 6 94 95 37 100 98 59 
53 
31 62 11 64 49 19 48 7 52 
97 42 43 15 57 87 13 
27 69 30 51 9 71 35 34 3 77 
92 91 44 14 38 86 16 61 85 93 96 
88 10 63 90 32 70 
33 81 65 66 20 1 
2 41 22 74 73 58 
40 21 72 75 56 4 26 
